
  22    4
  10   10   10   10

   0   0   0   0   0   5 2 3 4 5 7 
   3  10  10  10  10   2 8 6 
   4  10  10  10  10   5 21 14 13 10 8 
   4  10  10  10  10   3 12 9 6 
   8  10  10  10  10   4 21 14 13 8 
   7  10  10  10  10   5 21 20 14 13 10 
   9  10  10  10  10   4 19 15 11 10 
   6  10  10  10  10   2 12 9 
  10  10  10  10  10   4 20 18 17 15 
   7  10  10  10  10   3 18 17 16 
   2  10  10  10  10   3 18 17 16 
   5  10  10  10  10   2 17 15 
   6  10  10  10  10   2 19 16 
   4  10  10  10  10   1 15 
  10  10  10  10  10   1 16 
   4  10  10  10  10   1 22
  10  10  10  10  10   1 22
   8  10  10  10  10   1 22
   2  10  10  10  10   1 22
   5  10  10  10  10   1 22
   4  10  10  10  10   1 22
   0   0   0   0   0   0 
